// Generated on Fri Jan 27 14:59:31 2017
// diet.mod ticdat_diet.dat
foodItems = {"hamburger" "salad" "hot dog" "fries" "macaroni" "chicken" "milk"
         "ice cream" "pizza"};
foodCost = [2.49 2.49 1.5 1.89 2.09 2.89 0.89 1.59 1.99];
parameters = {<"total_cost" 11.8288611111111>};
objValue = 11.8288611111111;
buy_food = {<"hamburger" 0.604513888888889> <"milk" 6.97013888888889>
         <"ice cream" 2.59131944444444>};
consume_nutrition = {<"protein" 20.7305555555556> <"protein" 0>
         <"protein" 55.7611111111111> <"protein" 14.5083333333333>
         <"calories" 0> <"calories" 855.135416666667> <"calories" 247.850694444445>
         <"calories" 697.013888888889> <"fat" 25.9131944444444>
         <"fat" 15.7173611111111> <"fat" 17.4253472222222>
         <"fat" 0> <"sodium" 0> <"sodium" 871.267361111111>
         <"sodium" 466.4375> <"sodium" 441.295138888889>};
